; benchmark generated from python API
(set-info :status unknown)
(declare-fun s () Int)
(define-funs-rec ( ( T2_13 ((x!1 Int)) Int)
                   ( gould2_13 ((x!1 Int)) Int)
                   ( partial_sum2_13 ((x!1 Int) (x!2 Int)) Int)
                   ( binomial_coeff2_13 ((x!1 Int) (x!2 Int)) Int)
                   ( T2_08 ((x!1 Int)) Int)
                   ( b2_08 ((x!1 Int)) Int))
                 ( (mod (- ((_ gould2_13 0) x!1) 1) 3)
                   (let ((a!1 (+ (* ((_ partial_sum2_13 0) x!1 0) 2)
                                 (mod ((_ binomial_coeff2_13 0) x!1 (div x!1 2))
                                      2))))
                     (ite (= (mod x!1 2) 0)
                          a!1
                          (* ((_ partial_sum2_13 0) x!1 0) 2)))
                   (let ((a!1 (ite (= (mod ((_ binomial_coeff2_13 0) x!1 x!2) 2)
                                      1)
                                   (+ 1 ((_ partial_sum2_13 0) x!1 (+ x!2 1)))
                                   ((_ partial_sum2_13 0) x!1 (+ x!2 1)))))
                     (ite (> x!2 (div (+ x!1 1) 2)) 0 a!1))
                   (let ((a!1 (div (* ((_ binomial_coeff2_13 0) x!1 (- x!2 1))
                                      (- x!1 (- x!2 1)))
                                   x!2)))
                     (ite (= x!2 0) 1 a!1))
                   (mod ((_ b2_08 0) x!1) 2)
                   (let ((a!1 (- ((_ b2_08 0) (+ (div x!1 2) (mod x!1 2)))
                                 ((_ b2_08 0) (div x!1 2)))))
                     (ite (< x!1 2) x!1 a!1))))
(assert
 (forall ((n Int) )(let ((?x442 ((_ T2_13 0) n)))
 (let (($x380 (= ?x442 n)))
 (let ((?x439 ((_ T2_08 0) n)))
 (let (($x408 (= ?x439 n)))
 (let (($x480 (and $x408 $x380)))
 (let (($x387 (< n s)))
 (let (($x484 (>= n 0)))
 (let (($x420 (and $x484 $x387)))
 (=> $x420 $x480))))))))))
 )
(assert
 (forall ((n Int) )(let ((?x442 ((_ T2_13 0) n)))
(let ((?x439 ((_ T2_08 0) n)))
(let (($x431 (= ?x439 ?x442)))
(let (($x484 (>= n 0)))
(=> $x484 $x431))))))
)
(check-sat)
